NAME : lin105.tsp
COMMENT : Optimal tour for lin105.tsp
TYPE : TOUR
DIMENSION : 105
Total Length: 15368.747186348837
TOUR_SECTION
1
2
6
7
10
11
15
21
22
29
32
31
30
28
23
20
103
12
16
17
18
25
26
19
24
27
33
36
37
42
41
43
46
52
53
58
57
54
51
47
44
104
40
49
45
48
50
55
56
59
105
64
72
77
79
86
67
68
71
78
82
83
84
85
91
92
96
97
101
102
93
89
90
98
99
100
95
94
87
88
81
80
76
73
69
74
75
70
62
63
66
65
61
60
39
38
35
34
14
13
4
5
9
8
3
-1
EOF
